NAME: random-38-12360
TYPE: TSP
COMMENT: size=38 seed=12360
DIMENSION: 78
EDGE_WEIGHT_TYPE: EUC_2D
NODE_COORD_SECTION
+0 520 265
-0 520 265
+1 305 138
-1 933 750
+2 68 96
-2 620 307
+3 430 851
-3 300 171
+4 855 975
-4 267 898
+5 560 104
-5 727 20
+6 274 616
-6 648 26
+7 533 698
-7 523 620
+8 99 978
-8 841 648
+9 547 837
-9 337 355
+10 829 752
-10 476 743
+11 956 194
-11 951 462
+12 450 602
-12 329 192
+13 994 981
-13 800 874
+14 229 95
-14 461 124
+15 813 715
-15 133 519
+16 842 145
-16 737 593
+17 122 463
-17 644 851
+18 272 462
-18 491 260
+19 70 467
-19 436 47
+20 943 637
-20 628 37
+21 163 893
-21 747 438
+22 969 926
-22 26 738
+23 114 952
-23 738 728
+24 589 873
-24 464 142
+25 633 319
-25 357 92
+26 667 825
-26 421 944
+27 405 273
-27 464 704
+28 662 177
-28 819 951
+29 942 677
-29 529 356
+30 372 249
-30 901 240
+31 396 349
-31 656 445
+32 115 492
-32 59 227
+33 394 333
-33 224 136
+34 328 839
-34 281 563
+35 829 384
-35 849 863
+36 769 756
-36 856 86
+37 548 574
-37 375 567
+38 821 44
-38 25 561
PRECEDENCE_SECTION
+0 -0
+1 -1
+2 -2
+3 -3
+4 -4
+5 -5
+6 -6
+7 -7
+8 -8
+9 -9
+10 -10
+11 -11
+12 -12
+13 -13
+14 -14
+15 -15
+16 -16
+17 -17
+18 -18
+19 -19
+20 -20
+21 -21
+22 -22
+23 -23
+24 -24
+25 -25
+26 -26
+27 -27
+28 -28
+29 -29
+30 -30
+31 -31
+32 -32
+33 -33
+34 -34
+35 -35
+36 -36
+37 -37
+38 -38
EOF
